language ESSENCE' 1.0
$ minion Nodes: 2
$ minion TotalTime: 0.000717
$ Savile Row TotalTime: 0.234
letting pain_tuple2_AsReln_RelationIntMatrix2 be [[[false, true;int(-1,1)], 
[false, true;int(-1,1)];int(1..2)];int(1)]
letting pain_tuple4_tuple2 be [3;int(1)]
letting pain_tuple1 be [2;int(1)]
letting pain_tuple4_tuple1 be [7;int(1)]
letting pain_tuple3_tuple1 be [5;int(1)]
